% 
% Converted by convert_jobshop2.pl
% 
% original file (la01) from Google or-tools SVN repository
%   or-tools-read-only/data/jobshop/la01
%
%
% This data file is to be used with either of these two MiniZinc models:
%    http://www.hakank.org/minizinc/jobshop.mzn
%    http://www.hakank.org/minizinc/jobshop2.mzn
%


 
% +++++++++++++++++++++++++++++
% instance la01
% +++++++++++++++++++++++++++++
% Lawrence 10x5 instance (Table 3, instance 1); also called (setf1) or (F1)

num_machines = 10;
num_jobs = 5;
max_time = 99999; 

%
% The times for each job.
%
job_times = array2d(1..num_machines, 1..num_jobs,
[
21,53,95,55,34,
21,52,16,26,71,
39,98,42,31,12,
77,55,79,66,77,
83,34,64,19,37,
54,43,79,92,62,
69,77,87,87,93,
38,60,41,24,83,
17,49,25,44,98,
77,79,43,75,96,
]);


%
% The order each job must be done.
%
job_order = array2d(1..num_machines, 1..num_jobs,
[
1,0,4,3,2,
0,3,4,2,1,
3,4,1,2,0,
1,0,4,2,3,
0,3,2,1,4,
1,2,4,0,3,
3,4,1,2,0,
2,0,1,3,4,
3,1,4,0,2,
4,3,2,1,0,
]);
